0000000000000000
0001111101000000
0001111111000000
0001000111100000
0000000011110000
0000000001110000
0000000000111100
0000000000111000
0000000000111000
0000000000111100
0000000001111100
0000000001110000
0000000011111000
0001111111100000
0001111110100000
0001000000000000
